37
0
79
72
60
58
69
23
88
84
91
56
7
75
78
32
85
17
2
51
59
65
11
74
48
8
28
90
9
33
38
4
70
5
35
52
50
54
13
18
89
1
3
99
46
76
34
12
22
63
66
30
16
55
71
41
93
31
64
92
20
86
25
47
53
80
49
29
36
14
94
73
81
83
45
98
61
19
67
87
21
77
95
96
62
97
82
43
42
6
57
39
68
10
15
40
27
26
44
24
